============================[ Problem Statistics ]=============================|                                                                             ||  Number of variables:          4242                                         ||  Number of clauses:           10255                                         ||  Parse time:                   0.64 s                                       ||                                                                             |============================[ Search Statistics ]==============================| Conflicts |          ORIGINAL         |          LEARNT          | Progress ||           |    Vars  Clauses Literals |    Limit  Clauses Lit/Cl |          |===============================================================================|       100 |    1591     6460  1025261 |     2368      100     53 | 62.501 % ||       250 |    1591     6460  1025261 |     2605      250     75 | 62.495 % |===============================================================================restarts              : 3conflicts             : 352            (362 /sec)decisions             : 618            (0.00 % random) (635 /sec)propagations          : 11959          (12291 /sec)conflict literals     : 28603          (94.63 % deleted)CPU time              : 0.973 sSATISFIABLE